c File: instances/16_0.45_2.col
c
c Description: Random graph of size 16 vertices and P(0.44999999999999996) of edges between any two vertices.
p col 16 120
e 1 2
e 1 3
e 1 5
e 1 8
e 1 9
e 1 11
e 1 13
e 1 14
e 1 16
e 2 4
e 2 6
e 2 9
e 2 10
e 2 13
e 2 14
e 2 16
e 3 4
e 3 5
e 3 12
e 3 13
e 3 14
e 4 7
e 4 8
e 4 15
e 5 7
e 5 9
e 5 10
e 5 12
e 5 13
e 6 12
e 6 13
e 6 14
e 7 9
e 7 10
e 7 11
e 7 13
e 7 14
e 7 16
e 8 9
e 8 10
e 8 12
e 8 13
e 9 11
e 9 12
e 9 16
e 10 11
e 11 16
e 12 13
e 12 16
e 13 14
e 13 16
e 14 15
e 14 16